TIP.Original.Linear/tip2015_nat_acc_alt_mul_same.smt2
(set-logic HORN)
(declare-datatypes ((Nat_196 0)) (((zero_17 ) (succ_17 (p_48 Nat_196)))))
(declare-fun diseqNat_196 (Nat_196 Nat_196) Bool)
(declare-fun p_49 (Nat_196 Nat_196) Bool)
(declare-fun iszero_17 (Nat_196) Bool)
(declare-fun issucc_17 (Nat_196) Bool)
(assert (forall ((x_12324 Nat_196))
	(p_49 x_12324 (succ_17 x_12324))))
(assert (iszero_17 zero_17))
(assert (forall ((x_12326 Nat_196))
	(issucc_17 (succ_17 x_12326))))
(assert (forall ((x_12327 Nat_196))
	(diseqNat_196 zero_17 (succ_17 x_12327))))
(assert (forall ((x_12328 Nat_196))
	(diseqNat_196 (succ_17 x_12328) zero_17)))
(assert (forall ((x_12329 Nat_196) (x_12330 Nat_196))
	(=> (diseqNat_196 x_12329 x_12330)
	    (diseqNat_196 (succ_17 x_12329) (succ_17 x_12330)))))
(declare-fun plus_14 (Nat_196 Nat_196 Nat_196) Bool)
(assert (forall ((x_12277 Nat_196) (z_568 Nat_196) (y_511 Nat_196))
	(=> (plus_14 x_12277 z_568 y_511)
	    (plus_14 (succ_17 x_12277) (succ_17 z_568) y_511))))
(assert (forall ((x_12278 Nat_196))
	(plus_14 x_12278 zero_17 x_12278)))
(declare-fun times_0 (Nat_196 Nat_196 Nat_196) Bool)
(assert (forall ((x_12279 Nat_196) (x_12280 Nat_196) (z_569 Nat_196) (y_512 Nat_196))
	(=>	(and (times_0 x_12280 z_569 y_512)
			(plus_14 x_12279 y_512 x_12280))
		(times_0 x_12279 (succ_17 z_569) y_512))))
(assert (forall ((y_512 Nat_196))
	(times_0 zero_17 zero_17 y_512)))
(declare-fun accplus_1 (Nat_196 Nat_196 Nat_196) Bool)
(assert (forall ((x_12283 Nat_196) (z_570 Nat_196) (y_513 Nat_196))
	(=> (accplus_1 x_12283 z_570 (succ_17 y_513))
	    (accplus_1 x_12283 (succ_17 z_570) y_513))))
(assert (forall ((x_12285 Nat_196))
	(accplus_1 x_12285 zero_17 x_12285)))
(declare-fun accaltmul_0 (Nat_196 Nat_196 Nat_196) Bool)
(assert (forall ((x_12286 Nat_196) (x_12287 Nat_196) (x_12288 Nat_196) (x_12262 Nat_196) (z_571 Nat_196))
	(=>	(and (accaltmul_0 x_12287 z_571 x_12262)
			(accplus_1 x_12288 x_12262 x_12287)
			(accplus_1 x_12286 (succ_17 z_571) x_12288))
		(accaltmul_0 x_12286 (succ_17 z_571) (succ_17 x_12262)))))
(assert (forall ((z_571 Nat_196))
	(accaltmul_0 zero_17 (succ_17 z_571) zero_17)))
(assert (forall ((y_514 Nat_196))
	(accaltmul_0 zero_17 zero_17 y_514)))
(assert (forall ((x_12292 Nat_196) (x_12293 Nat_196) (x_12263 Nat_196) (y_515 Nat_196))
	(=>	(and true
			(diseqNat_196 x_12292 x_12293)
			(accaltmul_0 x_12292 x_12263 y_515)
			(times_0 x_12293 x_12263 y_515))
		false)))
(assert (forall ((x_12294 Nat_196) (x_12295 Nat_196) (x_12296 Nat_196) (x_12297 Nat_196) (x_12264 Nat_196) (y_516 Nat_196) (z_572 Nat_196))
	(=>	(and true
			(diseqNat_196 x_12295 x_12297)
			(times_0 x_12294 y_516 z_572)
			(times_0 x_12295 x_12264 x_12294)
			(times_0 x_12296 x_12264 y_516)
			(times_0 x_12297 x_12296 z_572))
		false)))
(assert (forall ((x_12298 Nat_196) (x_12299 Nat_196) (x_12300 Nat_196) (x_12301 Nat_196) (x_12265 Nat_196) (y_517 Nat_196) (z_573 Nat_196))
	(=>	(and true
			(diseqNat_196 x_12299 x_12301)
			(plus_14 x_12298 y_517 z_573)
			(plus_14 x_12299 x_12265 x_12298)
			(plus_14 x_12300 x_12265 y_517)
			(plus_14 x_12301 x_12300 z_573))
		false)))
(assert (forall ((x_12302 Nat_196) (x_12303 Nat_196) (x_12266 Nat_196) (y_518 Nat_196))
	(=>	(and true
			(diseqNat_196 x_12302 x_12303)
			(times_0 x_12302 x_12266 y_518)
			(times_0 x_12303 y_518 x_12266))
		false)))
(assert (forall ((x_12304 Nat_196) (x_12305 Nat_196) (x_12267 Nat_196) (y_519 Nat_196))
	(=>	(and true
			(diseqNat_196 x_12304 x_12305)
			(plus_14 x_12304 x_12267 y_519)
			(plus_14 x_12305 y_519 x_12267))
		false)))
(assert (forall ((x_12306 Nat_196) (x_12307 Nat_196) (x_12308 Nat_196) (x_12309 Nat_196) (x_12310 Nat_196) (x_12268 Nat_196) (y_520 Nat_196) (z_574 Nat_196))
	(=>	(and true
			(diseqNat_196 x_12307 x_12310)
			(plus_14 x_12306 y_520 z_574)
			(times_0 x_12307 x_12268 x_12306)
			(times_0 x_12308 x_12268 y_520)
			(times_0 x_12309 x_12268 z_574)
			(plus_14 x_12310 x_12308 x_12309))
		false)))
(assert (forall ((x_12311 Nat_196) (x_12312 Nat_196) (x_12313 Nat_196) (x_12314 Nat_196) (x_12315 Nat_196) (x_12269 Nat_196) (y_521 Nat_196) (z_575 Nat_196))
	(=>	(and true
			(diseqNat_196 x_12312 x_12315)
			(plus_14 x_12311 x_12269 y_521)
			(times_0 x_12312 x_12311 z_575)
			(times_0 x_12313 x_12269 z_575)
			(times_0 x_12314 y_521 z_575)
			(plus_14 x_12315 x_12313 x_12314))
		false)))
(assert (forall ((x_12316 Nat_196) (x_12270 Nat_196))
	(=>	(and true
			(diseqNat_196 x_12316 x_12270)
			(times_0 x_12316 x_12270 (succ_17 zero_17)))
		false)))
(assert (forall ((x_12317 Nat_196) (x_12271 Nat_196))
	(=>	(and true
			(diseqNat_196 x_12317 x_12271)
			(times_0 x_12317 (succ_17 zero_17) x_12271))
		false)))
(assert (forall ((x_12318 Nat_196) (x_12272 Nat_196))
	(=>	(and true
			(diseqNat_196 x_12318 x_12272)
			(plus_14 x_12318 x_12272 zero_17))
		false)))
(assert (forall ((x_12319 Nat_196) (x_12273 Nat_196))
	(=>	(and true
			(diseqNat_196 x_12319 x_12273)
			(plus_14 x_12319 zero_17 x_12273))
		false)))
(assert (forall ((x_12320 Nat_196) (x_12274 Nat_196))
	(=>	(and true
			(diseqNat_196 x_12320 zero_17)
			(times_0 x_12320 x_12274 zero_17))
		false)))
(assert (forall ((x_12321 Nat_196) (x_12275 Nat_196))
	(=>	(and true
			(diseqNat_196 x_12321 zero_17)
			(times_0 x_12321 zero_17 x_12275))
		false)))
(check-sat)
